% seed = 0

mint = 37;
% maxt = 173;

nActs = 62;
dur = [0,2,2,1,1,3,2,3,3,2,1,3,5,1,4,2,4,3,1,5,3,5,3,4,2,1,3,4,4,2,2,2,2,3,4,2,5,2,2,2,3,4,6,1,3,3,3,2,2,4,2,3,7,2,4,2,4,2,2,4,5,0];

nSkills = 12;
sreq = [| 0,0,0,0,0,0,0,0,0,0,0,0,
	| 0,1,2,0,1,1,0,1,0,0,0,0,
	| 0,0,1,0,0,0,0,0,0,0,0,0,
	| 0,0,1,1,0,1,0,0,0,0,1,0,
	| 0,0,3,0,1,0,0,0,0,1,0,0,
	| 0,1,1,0,1,1,0,1,0,0,2,0,
	| 1,0,0,0,1,0,0,0,0,0,0,0,
	| 0,0,0,0,0,0,0,0,0,0,1,0,
	| 0,0,0,0,0,2,0,0,1,0,2,0,
	| 0,0,2,0,0,3,0,1,1,0,0,0,
	| 0,0,0,0,0,0,0,0,0,1,1,0,
	| 0,0,0,0,1,0,0,0,0,0,0,0,
	| 0,0,0,0,0,0,0,1,2,1,1,0,
	| 0,0,0,0,0,0,1,0,0,0,0,0,
	| 0,0,2,1,0,1,0,1,0,0,1,0,
	| 0,0,0,0,0,0,0,1,0,0,0,0,
	| 1,0,1,0,0,1,0,0,0,1,0,0,
	| 0,0,1,0,1,0,0,0,0,0,0,0,
	| 0,0,2,0,0,2,0,0,1,0,2,0,
	| 0,1,0,0,0,0,0,0,1,0,0,0,
	| 0,0,1,1,0,1,0,0,1,0,3,0,
	| 0,0,1,0,0,1,0,0,0,0,0,0,
	| 0,0,2,0,0,0,0,0,0,0,1,0,
	| 0,0,1,0,0,2,0,0,0,0,0,0,
	| 0,0,0,0,2,0,0,0,0,0,0,0,
	| 0,1,1,0,2,0,0,0,1,1,0,0,
	| 0,0,1,0,0,1,0,0,0,0,0,0,
	| 1,1,0,0,0,1,0,0,1,0,1,0,
	| 0,0,2,0,0,0,0,0,0,1,0,0,
	| 0,1,1,0,3,0,0,0,0,0,0,0,
	| 0,0,0,0,0,0,0,1,0,0,0,0,
	| 0,0,1,0,0,0,0,0,0,0,1,0,
	| 0,0,2,0,0,1,0,1,0,1,1,0,
	| 0,0,0,0,0,1,0,0,0,0,0,0,
	| 0,0,4,0,0,2,0,0,0,0,1,0,
	| 0,0,0,1,0,1,0,0,1,0,0,0,
	| 0,0,2,1,0,1,0,0,0,0,1,0,
	| 0,0,1,0,0,0,0,0,0,0,0,0,
	| 0,0,1,0,0,2,0,1,0,0,1,0,
	| 0,1,1,0,2,0,1,0,0,1,1,0,
	| 0,0,0,0,0,0,0,1,0,1,0,0,
	| 0,0,0,0,0,0,0,0,0,0,1,0,
	| 0,0,1,0,0,0,0,0,0,1,0,0,
	| 0,0,2,0,0,0,0,0,0,1,0,0,
	| 0,0,0,1,1,0,0,0,1,0,4,0,
	| 0,1,2,1,0,2,0,0,0,1,0,0,
	| 0,0,1,0,1,2,0,1,1,0,0,0,
	| 0,0,0,0,0,1,0,0,0,0,0,0,
	| 0,1,2,0,1,0,0,0,0,1,0,0,
	| 0,0,0,0,0,1,0,0,0,0,0,0,
	| 0,0,0,0,0,0,0,0,0,0,1,0,
	| 0,0,1,0,0,0,0,0,0,1,0,0,
	| 0,0,2,1,0,0,0,0,1,2,0,0,
	| 0,0,1,1,0,2,0,0,0,0,1,0,
	| 0,0,1,0,2,0,1,0,0,0,0,0,
	| 0,1,0,0,1,1,0,0,0,0,0,0,
	| 0,0,1,0,1,0,1,1,0,0,0,1,
	| 0,1,2,0,1,1,0,0,0,0,1,0,
	| 0,0,1,1,0,0,0,1,0,1,1,0,
	| 0,0,1,0,0,0,0,0,0,0,1,0,
	| 0,0,1,0,2,2,0,0,0,1,0,0,
	| 0,0,0,0,0,0,0,0,0,0,0,0, |];

% SumOfsreq = 225;

nResources = 21;
mastery = [| false,false,false,false,false,false,false,true,true,false,false,false,
	| false,false,true,false,false,false,false,false,false,false,false,false,
	| true,true,true,false,false,false,false,false,true,false,false,false,
	| false,false,false,false,true,true,false,false,false,false,false,false,
	| false,false,false,false,false,false,false,false,false,true,true,true,
	| false,false,false,false,true,true,false,false,false,false,true,true,
	| false,false,true,false,false,false,false,false,false,false,false,false,
	| false,false,false,true,true,true,false,false,false,false,false,false,
	| false,false,false,false,false,true,false,false,false,false,false,false,
	| false,false,false,true,true,true,false,false,false,false,false,false,
	| false,false,false,false,false,false,false,false,false,false,true,true,
	| false,true,true,false,false,false,false,false,false,false,false,false,
	| false,false,false,false,false,false,false,false,false,true,true,true,
	| false,false,false,true,true,true,false,false,true,false,false,true,
	| false,false,true,false,false,false,false,false,false,false,false,false,
	| false,false,false,false,false,false,false,false,false,true,true,true,
	| false,false,false,true,true,true,true,true,true,false,false,true,
	| false,false,false,false,false,false,true,true,true,false,false,false,
	| false,false,true,false,false,false,false,false,false,false,false,false,
	| false,false,false,false,false,false,false,false,false,true,true,true,
	| false,false,false,true,true,true,false,false,false,false,false,false, |];

nPrecs = 131;
pred = [1,1,1,2,3,3,3,4,4,4,5,5,5,6,6,6,7,7,7,8,8,9,9,9,10,10,10,11,11,11,12,12,12,13,13,13,14,14,15,15,16,16,16,17,17,17,18,18,18,19,19,19,20,20,20,21,21,22,22,22,23,24,24,25,25,25,26,26,26,27,27,27,28,28,28,29,29,29,30,30,30,31,31,31,32,32,32,33,34,34,34,35,35,36,36,37,37,38,39,39,39,40,40,40,41,41,42,43,44,45,45,46,46,46,47,47,48,49,50,51,51,52,53,54,55,56,57,58,59,60,61];
succ = [2,3,4,32,9,5,6,12,7,8,18,19,24,17,10,16,11,51,15,26,28,17,15,32,25,26,20,21,13,37,17,14,22,57,59,47,19,29,19,27,27,23,24,34,38,55,26,22,40,43,46,40,49,29,23,34,39,27,36,30,50,52,38,36,37,30,33,39,31,35,60,45,41,36,54,45,35,37,33,41,48,44,53,32,49,42,46,50,35,44,43,61,53,51,38,44,46,53,42,43,45,41,42,61,57,56,50,49,60,47,48,52,54,48,54,55,55,56,59,58,52,57,56,58,58,59,60,61,62,62,62];

nUnrels = 951;
unpred = [2,2,2,2,2,2,2,2,2,2,2,2,2,2,2,2,2,2,2,2,2,2,2,2,2,2,2,2,2,2,2,2,2,2,2,2,2,2,2,2,2,2,2,2,3,3,3,3,3,3,3,3,3,4,4,4,4,4,4,4,4,4,4,5,5,5,5,5,5,5,5,5,5,5,5,5,5,5,5,5,5,5,5,6,6,6,6,6,6,6,6,6,6,6,6,6,6,7,7,7,7,7,7,7,7,7,7,7,7,7,7,7,7,7,7,7,7,7,7,8,8,8,8,8,8,8,8,8,8,8,8,8,8,8,8,8,8,8,8,8,8,8,8,9,9,9,9,9,9,9,9,9,9,9,9,9,9,9,9,9,9,9,9,9,9,9,10,10,10,10,10,10,10,10,10,10,10,10,10,10,10,10,11,11,11,11,11,11,11,11,11,11,11,11,11,11,11,11,11,11,11,11,11,11,11,11,11,12,12,12,12,12,12,12,12,12,12,12,12,12,12,13,13,13,13,13,13,13,13,13,13,13,13,13,13,13,13,13,13,13,13,13,13,13,13,13,13,13,13,13,13,13,13,13,13,13,13,13,13,13,13,14,14,14,14,14,14,14,14,14,14,14,14,14,14,14,14,14,14,14,14,14,14,15,15,15,15,15,15,15,15,15,15,15,15,15,15,15,15,15,15,15,15,15,15,15,16,16,16,16,16,16,16,16,16,16,16,16,16,16,16,16,16,16,16,16,16,16,16,16,16,16,17,17,17,17,17,17,17,17,17,17,17,17,17,17,17,17,17,17,17,17,17,17,17,17,17,17,17,17,17,17,17,18,18,18,18,18,18,18,18,18,18,19,19,19,19,19,19,19,19,19,19,19,19,19,19,19,19,19,19,19,19,19,19,19,19,19,20,20,20,20,20,20,20,20,20,20,20,20,20,20,20,20,20,20,20,20,21,21,21,21,21,21,21,21,21,21,21,21,21,21,21,21,21,21,21,21,21,22,22,22,22,22,22,22,22,22,22,22,22,22,22,22,22,22,23,23,23,23,23,23,23,23,23,23,23,23,23,23,23,23,23,23,23,23,23,23,23,23,23,23,23,23,23,23,23,23,23,23,23,23,24,24,24,24,24,24,24,24,24,24,24,24,24,24,24,24,24,24,24,24,24,24,24,24,24,24,24,24,24,24,25,25,25,25,25,25,25,25,25,25,25,25,25,25,25,26,26,26,26,26,26,26,26,26,26,26,26,27,27,27,27,27,27,27,27,27,27,27,27,27,27,27,27,27,27,27,27,27,27,28,28,28,28,28,28,28,28,28,28,28,28,28,28,28,28,28,28,28,28,29,29,29,29,29,29,29,29,29,29,29,29,29,29,29,30,30,30,30,30,30,30,30,30,30,30,30,30,30,30,30,30,30,30,30,31,31,31,31,31,31,31,31,31,31,31,31,31,32,32,32,32,32,32,32,32,32,32,32,32,32,32,32,33,33,33,33,33,33,33,33,33,33,33,33,33,33,33,33,33,33,33,33,33,33,33,33,33,33,34,34,34,34,34,34,34,34,34,34,34,34,34,34,34,34,34,34,35,35,35,35,35,35,35,35,35,35,35,35,35,35,35,35,35,35,35,35,35,35,36,36,36,36,36,36,36,36,36,36,36,36,36,36,36,37,37,37,37,37,37,37,37,37,37,37,37,37,37,38,38,38,38,38,38,38,38,38,38,38,38,38,38,38,38,38,38,38,38,39,39,39,39,39,39,39,39,39,40,40,40,40,40,40,40,40,40,40,40,40,40,41,41,41,41,41,41,41,41,41,41,41,41,41,41,41,41,42,42,42,42,42,42,42,42,42,42,42,42,42,42,42,42,42,43,43,43,43,43,43,43,43,43,43,43,43,43,43,43,44,44,44,44,44,44,44,44,44,44,44,44,44,44,44,44,45,45,45,45,45,45,45,45,45,45,46,46,46,46,46,46,46,47,47,47,47,47,47,47,47,47,47,48,48,48,48,48,48,48,48,48,48,49,49,49,49,49,49,49,49,49,49,50,50,50,50,50,50,50,50,50,50,51,51,51,51,51,52,52,52,52,52,52,52,53,53,53,53,53,53,54,54,54,54,54,55,55,55,55,56,56,56,56,57,57,57,58,58,59,59,60];
unsucc = [3,4,5,6,7,8,9,10,11,12,13,14,15,16,17,18,19,20,21,22,23,24,25,26,27,28,29,30,31,33,34,35,36,37,38,39,40,41,43,44,45,47,51,53,4,7,8,11,12,13,14,21,28,5,6,9,10,16,18,20,23,24,25,6,7,8,9,10,11,12,13,14,15,16,17,20,21,23,25,28,29,34,37,7,8,9,11,12,13,14,15,18,19,21,22,28,40,8,9,10,12,14,16,17,18,20,22,23,24,25,26,28,29,30,31,32,33,36,38,9,10,11,12,13,14,15,16,17,18,19,20,21,22,23,24,25,27,29,30,34,35,37,40,10,11,12,13,14,16,18,20,21,22,23,24,25,26,28,29,30,31,33,36,37,39,51,11,12,13,14,15,16,17,18,19,21,22,24,27,28,34,40,12,14,15,16,17,18,19,20,22,23,24,25,26,27,28,29,30,31,32,33,36,38,40,41,51,13,15,16,18,20,21,23,24,25,26,28,31,32,39,14,15,16,17,18,19,20,21,22,23,24,25,26,27,28,29,30,31,32,33,34,35,36,37,38,39,40,41,42,43,44,45,46,48,49,50,51,52,53,56,15,16,17,18,20,21,22,23,24,25,26,27,28,30,31,32,33,34,36,38,39,51,16,17,18,20,21,22,23,24,25,26,28,29,30,31,32,33,34,36,37,38,39,44,51,17,18,19,20,21,22,25,26,28,29,30,31,32,33,34,36,37,39,40,41,42,43,44,46,49,51,18,19,20,21,22,23,24,25,26,27,28,29,30,31,32,33,36,37,39,40,41,42,45,46,47,48,50,51,52,54,57,19,20,21,23,24,25,28,29,34,37,20,21,22,23,24,25,26,27,28,29,30,31,32,33,34,35,36,37,38,39,44,45,47,51,53,21,22,24,25,26,27,28,30,31,32,33,34,36,38,39,40,41,42,43,51,22,23,24,25,26,27,28,29,30,31,32,33,36,37,38,40,41,46,51,52,57,23,24,25,26,28,29,31,32,34,37,39,40,42,43,44,46,49,24,25,26,27,28,29,30,31,32,33,34,35,36,37,38,39,40,41,42,43,44,45,46,47,48,49,51,52,53,54,55,56,57,58,60,61,25,26,27,28,29,30,31,32,33,34,35,36,37,39,40,41,42,43,44,45,46,47,48,49,50,51,54,55,58,61,26,27,28,29,31,32,34,35,39,40,42,43,45,47,49,27,28,29,30,34,35,36,37,38,40,41,51,28,29,30,31,32,33,34,36,37,38,39,40,41,42,43,44,46,49,50,51,52,57,29,30,31,32,33,34,35,37,39,40,42,43,44,45,46,47,48,49,50,55,30,31,32,33,34,36,38,39,40,41,42,43,49,50,51,31,32,34,35,36,37,38,39,40,42,43,44,45,46,47,49,51,52,53,54,33,34,35,36,37,38,39,40,41,43,45,47,51,33,34,35,36,37,38,39,40,41,43,44,45,47,51,53,34,35,36,37,38,39,40,41,42,43,44,45,46,47,48,49,51,52,53,54,55,56,57,58,60,61,36,37,38,39,40,41,42,45,46,47,48,50,51,52,54,55,57,58,36,37,38,39,40,41,42,43,44,45,46,47,48,49,50,51,52,54,55,57,58,60,37,39,40,41,42,43,44,45,46,47,48,49,50,54,55,38,39,40,41,42,43,45,47,49,50,51,53,56,59,39,40,41,42,43,44,45,46,47,48,49,50,51,52,54,55,57,58,60,61,40,41,44,46,51,52,53,57,60,43,44,45,46,47,48,49,51,52,53,54,55,58,42,43,44,45,46,47,48,49,50,51,52,53,54,55,58,61,43,44,45,46,47,48,49,51,52,53,54,55,56,57,58,60,61,44,45,46,47,48,50,51,52,53,54,55,57,58,60,61,45,46,47,48,49,50,51,52,53,54,55,56,57,58,59,61,46,49,50,51,52,53,56,57,59,60,47,49,50,51,53,56,59,48,49,50,51,52,53,56,57,59,60,49,50,51,52,53,54,56,57,59,60,50,51,52,53,54,55,57,58,60,61,51,52,53,54,55,56,57,58,60,61,53,54,55,56,59,53,54,55,56,58,59,61,54,55,57,58,60,61,55,56,57,59,60,56,57,59,60,57,58,60,61,58,59,61,59,60,60,61,61];

USEFUL_RES = [{},
	{1,2,3,4,6,7,8,9,10,12,14,15,17,18,19,21},
	{2,3,7,12,15,19},
	{2,3,4,5,6,7,8,9,10,11,12,13,14,15,16,17,19,20,21},
	{2,3,4,5,6,7,8,10,12,13,14,15,16,17,19,20,21},
	{1,2,3,4,5,6,7,8,9,10,11,12,13,14,15,16,17,18,19,20,21},
	{3,4,6,8,10,14,17,21},
	{5,6,11,13,16,20},
	{1,3,4,5,6,8,9,10,11,13,14,16,17,18,20,21},
	{1,2,3,4,6,7,8,9,10,12,14,15,17,18,19,21},
	{5,6,11,13,16,20},
	{4,6,8,10,14,17,21},
	{1,3,5,6,11,13,14,16,17,18,20},
	{17,18},
	{1,2,3,4,5,6,7,8,9,10,11,12,13,14,15,16,17,18,19,20,21},
	{1,17,18},
	{2,3,4,5,6,7,8,9,10,12,13,14,15,16,17,19,20,21},
	{2,3,4,6,7,8,10,12,14,15,17,19,21},
	{1,2,3,4,5,6,7,8,9,10,11,12,13,14,15,16,17,18,19,20,21},
	{1,3,12,14,17,18},
	{1,2,3,4,5,6,7,8,9,10,11,12,13,14,15,16,17,18,19,20,21},
	{2,3,4,6,7,8,9,10,12,14,15,17,19,21},
	{2,3,5,6,7,11,12,13,15,16,19,20},
	{2,3,4,6,7,8,9,10,12,14,15,17,19,21},
	{4,6,8,10,14,17,21},
	{1,2,3,4,5,6,7,8,10,12,13,14,15,16,17,18,19,20,21},
	{2,3,4,6,7,8,9,10,12,14,15,17,19,21},
	{1,3,4,5,6,8,9,10,11,12,13,14,16,17,18,20,21},
	{2,3,5,7,12,13,15,16,19,20},
	{2,3,4,6,7,8,10,12,14,15,17,19,21},
	{1,17,18},
	{2,3,5,6,7,11,12,13,15,16,19,20},
	{1,2,3,4,5,6,7,8,9,10,11,12,13,14,15,16,17,18,19,20,21},
	{4,6,8,9,10,14,17,21},
	{2,3,4,5,6,7,8,9,10,11,12,13,14,15,16,17,19,20,21},
	{1,3,4,6,8,9,10,14,17,18,21},
	{2,3,4,5,6,7,8,9,10,11,12,13,14,15,16,17,19,20,21},
	{2,3,7,12,15,19},
	{1,2,3,4,5,6,7,8,9,10,11,12,13,14,15,16,17,18,19,20,21},
	{2,3,4,5,6,7,8,10,11,12,13,14,15,16,17,18,19,20,21},
	{1,5,13,16,17,18,20},
	{5,6,11,13,16,20},
	{2,3,5,7,12,13,15,16,19,20},
	{2,3,5,7,12,13,15,16,19,20},
	{1,3,4,5,6,8,10,11,13,14,16,17,18,20,21},
	{2,3,4,5,6,7,8,9,10,12,13,14,15,16,17,19,20,21},
	{1,2,3,4,6,7,8,9,10,12,14,15,17,18,19,21},
	{4,6,8,9,10,14,17,21},
	{2,3,4,5,6,7,8,10,12,13,14,15,16,17,19,20,21},
	{4,6,8,9,10,14,17,21},
	{5,6,11,13,16,20},
	{2,3,5,7,12,13,15,16,19,20},
	{1,2,3,5,7,8,10,12,13,14,15,16,17,18,19,20,21},
	{2,3,4,5,6,7,8,9,10,11,12,13,14,15,16,17,19,20,21},
	{2,3,4,6,7,8,10,12,14,15,17,18,19,21},
	{3,4,6,8,9,10,12,14,17,21},
	{1,2,3,4,5,6,7,8,10,11,12,13,14,15,16,17,18,19,20,21},
	{2,3,4,5,6,7,8,9,10,11,12,13,14,15,16,17,19,20,21},
	{1,2,3,5,6,7,8,10,11,12,13,14,15,16,17,18,19,20,21},
	{2,3,5,6,7,11,12,13,15,16,19,20},
	{2,3,4,5,6,7,8,9,10,12,13,14,15,16,17,19,20,21},
	{}];

POTENTIAL_ACT = [{2,6,9,10,13,15,16,19,20,21,26,28,31,33,36,39,41,45,47,53,57,59},
	{2,3,4,5,6,10,15,17,18,19,21,22,23,24,26,27,29,30,32,33,35,37,38,39,40,43,44,46,47,49,52,53,54,55,57,58,59,60,61},
	{2,3,4,5,6,7,9,10,13,15,17,18,19,20,21,22,23,24,26,27,28,29,30,32,33,35,36,37,38,39,40,43,44,45,46,47,49,52,53,54,55,56,57,58,59,60,61},
	{2,4,5,6,7,9,10,12,15,17,18,19,21,22,24,25,26,27,28,30,33,34,35,36,37,39,40,45,46,47,48,49,50,54,55,56,57,58,61},
	{4,5,6,8,9,11,13,15,17,19,21,23,26,28,29,32,33,35,37,39,40,41,42,43,44,45,46,49,51,52,53,54,57,58,59,60,61},
	{2,4,5,6,7,8,9,10,11,12,13,15,17,18,19,21,22,23,24,25,26,27,28,30,32,33,34,35,36,37,39,40,42,45,46,47,48,49,50,51,54,55,56,57,58,59,60,61},
	{2,3,4,5,6,10,15,17,18,19,21,22,23,24,26,27,29,30,32,33,35,37,38,39,40,43,44,46,47,49,52,53,54,55,57,58,59,60,61},
	{2,4,5,6,7,9,10,12,15,17,18,19,21,22,24,25,26,27,28,30,33,34,35,36,37,39,40,45,46,47,48,49,50,53,54,55,56,57,58,59,61},
	{2,4,6,9,10,15,17,19,21,22,24,27,28,33,34,35,36,37,39,46,47,48,50,54,56,58,61},
	{2,4,5,6,7,9,10,12,15,17,18,19,21,22,24,25,26,27,28,30,33,34,35,36,37,39,40,45,46,47,48,49,50,53,54,55,56,57,58,59,61},
	{4,6,8,9,11,13,15,19,21,23,28,32,33,35,37,39,40,42,45,51,54,57,58,59,60},
	{2,3,4,5,6,10,15,17,18,19,20,21,22,23,24,26,27,28,29,30,32,33,35,37,38,39,40,43,44,46,47,49,52,53,54,55,56,57,58,59,60,61},
	{4,5,6,8,9,11,13,15,17,19,21,23,26,28,29,32,33,35,37,39,40,41,42,43,44,45,46,49,51,52,53,54,57,58,59,60,61},
	{2,4,5,6,7,9,10,12,13,15,17,18,19,20,21,22,24,25,26,27,28,30,33,34,35,36,37,39,40,45,46,47,48,49,50,53,54,55,56,57,58,59,61},
	{2,3,4,5,6,10,15,17,18,19,21,22,23,24,26,27,29,30,32,33,35,37,38,39,40,43,44,46,47,49,52,53,54,55,57,58,59,60,61},
	{4,5,6,8,9,11,13,15,17,19,21,23,26,28,29,32,33,35,37,39,40,41,42,43,44,45,46,49,51,52,53,54,57,58,59,60,61},
	{2,4,5,6,7,9,10,12,13,14,15,16,17,18,19,20,21,22,24,25,26,27,28,30,31,33,34,35,36,37,39,40,41,45,46,47,48,49,50,53,54,55,56,57,58,59,61},
	{2,6,9,10,13,14,15,16,19,20,21,26,28,31,33,36,39,40,41,45,47,53,55,57,59},
	{2,3,4,5,6,10,15,17,18,19,21,22,23,24,26,27,29,30,32,33,35,37,38,39,40,43,44,46,47,49,52,53,54,55,57,58,59,60,61},
	{4,5,6,8,9,11,13,15,17,19,21,23,26,28,29,32,33,35,37,39,40,41,42,43,44,45,46,49,51,52,53,54,57,58,59,60,61},
	{2,4,5,6,7,9,10,12,15,17,18,19,21,22,24,25,26,27,28,30,33,34,35,36,37,39,40,45,46,47,48,49,50,53,54,55,56,57,58,59,61}];
